Input file: instance_30.lp
Input data:
num_squadre(3).
player(1, portiere, attaccante).
player(2, attaccante, portiere).
player(3, attaccante, portiere).
player(4, centrocampista, difensore).
player(5, portiere, centrocampista).
player(6, attaccante, difensore).
player(7, attaccante, centrocampista).
player(8, attaccante, portiere).
player(9, centrocampista, difensore).
player(10, centrocampista, portiere).
player(11, centrocampista, difensore).
player(12, difensore, centrocampista).
player(13, attaccante, difensore).
player(14, portiere, attaccante).
player(15, centrocampista, difensore).
player(16, difensore, portiere).
player(17, difensore, centrocampista).
player(18, portiere, difensore).
player(19, centrocampista, portiere).
player(20, attaccante, portiere).
player(21, attaccante, difensore).
player(22, attaccante, centrocampista).
player(23, centrocampista, portiere).
player(24, centrocampista, portiere).
player(25, portiere, difensore).
player(26, difensore, attaccante).
player(27, attaccante, portiere).
player(28, difensore, portiere).
player(29, portiere, difensore).
player(30, difensore, centrocampista).
player(31, attaccante, difensore).
player(32, portiere, centrocampista).
player(33, attaccante, centrocampista).
player(34, attaccante, difensore).
player(35, centrocampista, difensore).
different_team(1, 2).
different_team(1, 3).
different_team(2, 3).
different_team(13, 31).

Output Clingo:
clingo version 5.7.1
Reading from ...ed-Reasoning-Project\Clingo\implASP.lp ...
Solving...
Answer: 1
assigned(1,2,attaccante) assigned(2,3,attaccante) assigned(3,1,attaccante) assigned(4,1,centrocampista) assigned(5,1,portiere) assigned(6,1,difensore) assigned(7,2,attaccante) assigned(8,2,attaccante) assigned(9,2,centrocampista) assigned(10,3,centrocampista) assigned(11,3,difensore) assigned(12,3,centrocampista) assigned(13,3,difensore) assigned(14,2,attaccante) assigned(15,1,difensore) assigned(16,2,portiere) assigned(17,2,centrocampista) assigned(18,1,difensore) assigned(19,2,centrocampista) assigned(20,3,attaccante) assigned(21,3,difensore) assigned(22,1,centrocampista) assigned(23,2,centrocampista) assigned(24,3,centrocampista) assigned(25,3,difensore) assigned(26,2,attaccante) assigned(27,1,attaccante) assigned(28,2,difensore) assigned(29,3,portiere) assigned(30,2,centrocampista) assigned(31,2,difensore) assigned(32,1,centrocampista) assigned(33,2,centrocampista) assigned(34,2,difensore) assigned(35,2,difensore) total_penalty(1)
Optimization: 1
Answer: 1
assigned(1,3,portiere) assigned(2,2,attaccante) assigned(3,1,attaccante) assigned(4,2,difensore) assigned(5,1,portiere) assigned(6,1,difensore) assigned(7,2,centrocampista) assigned(8,2,portiere) assigned(9,1,centrocampista) assigned(10,2,centrocampista) assigned(11,2,difensore) assigned(12,3,centrocampista) assigned(13,3,difensore) assigned(14,1,attaccante) assigned(15,1,centrocampista) assigned(16,1,difensore) assigned(17,1,centrocampista) assigned(18,3,difensore) assigned(19,2,centrocampista) assigned(20,2,attaccante) assigned(21,2,difensore) assigned(22,1,centrocampista) assigned(23,1,centrocampista) assigned(24,3,centrocampista) assigned(25,1,difensore) assigned(26,2,attaccante) assigned(27,3,attaccante) assigned(28,3,difensore) assigned(29,3,difensore) assigned(30,3,centrocampista) assigned(31,1,difensore) assigned(32,3,centrocampista) assigned(33,3,attaccante) assigned(34,2,difensore) assigned(35,2,difensore) total_penalty(1)
Optimization: 1
OPTIMUM FOUND

Models       : 2+
  Optimum    : yes
Optimization : 1
Calls        : 1
Time         : 104.743s (Solving: 104.73s 1st Model: 0.00s Unsat: 0.00s)
CPU Time     : 102.156s

Tempo di esecuzione Clingo: 104.76 secondi
